results_rootrelaxation/bin012_050_015.srr.sol
solution status: optimal solution found
objective value:                                    0
_var185_                           0.0178275957533113 	(obj:0)
_var229_                            0.256385163628872 	(obj:0)
_var520_                           0.0960720057171931 	(obj:0)
_var546_                           0.0799891836905506 	(obj:0)
_var722_                            0.521101460845604 	(obj:0)
_var727_                           0.0235383496114503 	(obj:0)
_var730_                            0.297319744271541 	(obj:0)
_var734_                           0.0886937374855942 	(obj:0)
_var738_                            0.303951172088771 	(obj:0)
_var745_                            0.353596744805918 	(obj:0)
_var751_                            0.646750922283529 	(obj:0)
_var752_                           0.0854359680918861 	(obj:0)
_var764_                            0.137624661185545 	(obj:0)
_var769_                            0.153070093548201 	(obj:0)
_var771_                           0.0288241770269298 	(obj:0)
_var776_                            0.441125153713922 	(obj:0)
_var780_                            0.142337481731382 	(obj:0)
_var781_                            0.349746653704265 	(obj:0)
_var785_                           0.0425377122217858 	(obj:0)
_var786_                            0.257177071999278 	(obj:0)
_var787_                           0.0564508340791007 	(obj:0)
_var789_                            0.313022707811563 	(obj:0)
_var793_                           0.0807231475460503 	(obj:0)
_var794_                            0.508392297242484 	(obj:0)
_var801_                            0.383354472350809 	(obj:0)
_var804_                           0.0152265308618937 	(obj:0)
_var807_                            0.138732045248228 	(obj:0)
_var808_                            0.201498831452282 	(obj:0)
_var813_                            0.364419492534815 	(obj:0)
_var814_                           0.0864145865658851 	(obj:0)
_var815_                            0.455360189542945 	(obj:0)
_var816_                          0.00329639907031309 	(obj:0)
_var818_                           0.0775619523438553 	(obj:0)
_var819_                           0.0972115811770471 	(obj:0)
_var821_                            0.277399707702113 	(obj:0)
_var824_                           0.0606099625935964 	(obj:0)
_var825_                            0.174928052227323 	(obj:0)
_var826_                            0.032506872863295 	(obj:0)
_var827_                            0.202651283471006 	(obj:0)
_var830_                           0.0425956567366939 	(obj:0)
_var831_                            0.357685052246638 	(obj:0)
_var834_                            0.138506705468031 	(obj:0)
_var835_                            0.248266493262339 	(obj:0)
_var836_                           0.0426085332955632 	(obj:0)
_var838_                            0.133909773952008 	(obj:0)
_var840_                            0.163693254614638 	(obj:0)
_var844_                            0.152561469472899 	(obj:0)
_var847_                            0.303970486927073 	(obj:0)
_var848_                           0.0598695604586644 	(obj:0)
_var851_                            0.138242736011229 	(obj:0)
_var854_                            0.121509647761732 	(obj:0)
_var856_                            0.203926062798977 	(obj:0)
_var857_                           0.0312964763296665 	(obj:0)
_var860_                            0.151750246264189 	(obj:0)
_var861_                            0.257177071999278 	(obj:0)
_var862_                           0.0138101093863685 	(obj:0)
_var863_                            0.161150134238125 	(obj:0)
_var866_                           0.0921253404240257 	(obj:0)
_var869_                           0.0423316872798911 	(obj:0)
_var873_                           0.0324489283483876 	(obj:0)
_var874_                           0.0590197075733492 	(obj:0)
_var875_                            0.144738959960339 	(obj:0)
_var884_                           0.0102175494620804 	(obj:0)
_var885_                           0.0437223556376795 	(obj:0)
